Route #1: 27 6 94 13 58 53
Route #2: 89 59 98 100 37 92 97 95
Route #3: 96 99 93 85 61
Route #4: 91 44 14 38 86 16
Route #5: 82 8 46 45 17 84 5 83 60
Route #6: 64 49 36 47 48 7
Route #7: 88 31 70 30 20 66
Route #8: 62 10 32 90 63 11 19 18
Route #9: 52 87 42 43 15 57 2 40 26
Route #10: 12 80 68 77 76 50 1
Route #11: 69 33 81 9 34 78 79 3
Route #12: 51 71 65 35 29 24 54 55 25 73 21
Route #13: 72 75 56 23 41 22 74
Route #14: 39 67 4 28
Cost 1217
